CMD:
./solvers/bin/cadical --plain --no-reduce -t 1600 ./data/cnfs//oski15a01b59s/oski15a01b59s.48.cnf

c --- [ banner ] -------------------------------------------------------------
c 
c CaDiCaL SAT Solver
c Copyright (c) 2016-2024
c A. Biere, M. Fleury, N. Froleyks, K. Fazekas, F. Pollitt, T. Faller
c JKU Linz, University of Freiburg, TU Wien
c 
c Version 2.1.3 5296d3d2a9bf48c154ab2acb5e44625776d821bf
c g++ (Gentoo 12.3.1_p20230526 p2) 12.3.1 20230526 -Wall -Wextra -O3 -DNDEBUG
c Sat Aug 9 07:26:21 PDT 2025 Linux cedar2.int.cedar.computecanada.ca 5.14.0-362.24.2.el9_3.x86_64 x86_64
c 
c --- [ limit ] --------------------------------------------------------------
c 
c setting time limit to 1600 seconds real time (due to '-t 1600')
c 
c --- [ parsing input ] ------------------------------------------------------
c 
c reading DIMACS file from './data/cnfs//oski15a01b59s/oski15a01b59s.48.cnf'
c opening file to read './data/cnfs//oski15a01b59s/oski15a01b59s.48.cnf'
c found 'p cnf 15782626 45076805' header
c parsed 45076805 clauses in 8.24 seconds process time
c 
c --- [ options ] ------------------------------------------------------------
c 
c   --compact=false                (different from default 'true')
c   --decompose=false              (different from default 'true')
c   --deduplicate=false            (different from default 'true')
c   --elim=false                   (different from default 'true')
c   --probe=false                  (different from default 'true')
c   --reduce=false                 (different from default 'true')
c   --subsume=false                (different from default 'true')
c   --ternary=false                (different from default 'true')
c   --transred=false               (different from default 'true')
c   --vivify=false                 (different from default 'true')
c 
c --- [ solving ] ------------------------------------------------------------
c 
c time measured in process time since initialization
c 
c  seconds    reductions  redundant   irredundant
c          MB     restarts       trail          variables
c            level   conflicts       glue              remaining
c 
c *  8.24 6759  0 0   0    0    0  0% 0 42699483 12630962 80%
c { 10.93 6863  0 0   0    0    0  0% 0 42699483 12630962 80%
c i 14.56 6871 8861 0  23  129  128 24% 3 42699483 12630961 80%
c i 14.58 6871 8534 0  24  135  131 24% 3 42699483 12630960 80%
c i 14.61 6872 3705 0  25  326  307 22% 2 42699483 12630957 80%
c i 14.61 6872 3693 0  25  327  307 22% 2 42699483 12630954 80%
c i 14.61 6872 3670 0  25  329  308 22% 2 42699483 12630953 80%
c i 14.63 6872 2951 0  26  409  385 21% 2 42699483 12630948 80%
c i 14.63 6872 2675 0  26  452  420 21% 2 42699483 12630945 80%
c i 14.68 6873 2306 0  34  525  485 21% 2 42699483 12630941 80%
c i 14.68 6873 2284 0  34  531  489 21% 2 42699483 12630938 80%
c i 14.78 6873 1959 0  37  630  577 21% 2 42699483 12630935 80%
c i 17.07 6878 3442 0  48  716  661 22% 2 42699483 12630934 80%
c i 17.09 6878 3417 0  49  722  664 22% 2 42699483 12630933 80%
c i 17.12 6878 3336 0  55  739  680 22% 2 42699483 12630930 80%
c i 17.12 6878 3322 0  56  743  682 22% 2 42699483 12630927 80%
c i 17.13 6878 3299 0  58  749  686 22% 2 42699483 12630924 80%
c i 17.15 6879 3184 0  65  777  708 22% 2 42699483 12630921 80%
c i 17.15 6879 3180 0  65  778  708 22% 2 42699483 12630919 80%
c i 17.15 6879 3163 0  65  782  711 22% 2 42699483 12630916 80%
c 
c  seconds      reductions  redundant   irredundant
c          MB       restarts       trail          variables
c             level    conflicts       glue              remaining
c 
c i 17.15 6879 3158 0  65  783  711 22% 2 42699483 12630914 80%
c i 17.18 6879 2695 0  65  927  844 22% 2 42699483 12630911 80%
c i 17.18 6879 2692 0  65  928  844 22% 2 42699483 12630908 80%
c } 17.20 6880 2503 0  65 1000  914 22% 2 42699483 12630908 80%
c [ 17.20 6880  0 0  65 1000  914  0% 0 42699483 12630908 80%
c O 18.12 6880 15072 0  65 1002  916 38% 11 42699483 12630906 80%
c i 18.84 6881 15092 0  65 1369 1235 28% 6 42699483 12630903 80%
c i 18.88 6881 15092 0  65 1423 1282 28% 6 42699483 12630900 80%
c i 18.91 6881 15097 0  65 1510 1360 28% 6 42699483 12630898 80%
c i 18.92 6881 15097 0  65 1513 1361 28% 6 42699483 12630895 80%
c i 18.95 6881 15096 0  65 1594 1432 28% 6 42699483 12630891 80%
c i 19.00 6881 15096 0  65 1701 1532 28% 6 42699483 12630888 80%
c i 19.00 6881 15098 0  65 1720 1550 28% 6 42699483 12630885 80%
c i 19.13 6881 15099 0  65 1968 1767 28% 6 42699483 12630882 80%
c i 19.13 6881 15099 0  65 1971 1769 28% 6 42699483 12630881 80%
c i 19.14 6881 15099 0  65 1986 1781 28% 6 42699483 12630874 80%
c i 19.14 6881 15099 0  65 2004 1793 28% 6 42699483 12630870 80%
c i 19.17 6881 15099 0  65 2066 1852 28% 6 42699483 12630868 80%
c i 19.20 6881 14758 0  66 2120 1900 28% 6 42699483 12630864 80%
c i 19.24 6882 14132 0  66 2167 1943 27% 6 42699483 12630861 80%
c 
c  seconds       reductions  redundant   irredundant
c          MB        restarts       trail          variables
c              level    conflicts       glue              remaining
c 
c i 19.29 6882 12498 0  66 2316 2085 27% 6 42699483 12630859 80%
c i 19.29 6882 12488 0  66 2317 2085 27% 6 42699483 12630857 80%
c i 19.29 6882 12478 0  66 2318 2085 27% 6 42699483 12630855 80%
c i 19.29 6882 12469 0  66 2319 2085 27% 6 42699483 12630853 80%
... skipped 13158 lines ...
c i 1590.60 7761 5605 0 43733 556892 455057 32% 12 34962560 12400820 79%
c i 1590.60 7761 5605 0 43733 556895 455057 32% 12 34962560 12400805 79%
c i 1590.60 7761 5605 0 43733 556900 455057 32% 12 34962560 12400796 79%
c i 1590.60 7761 5604 0 43733 556905 455059 32% 12 34962560 12400794 79%
c i 1590.60 7761 5604 0 43733 556908 455061 32% 12 34962560 12400790 79%
c i 1590.61 7761 5604 0 43733 556915 455061 32% 12 34962560 12400757 79%
c i 1590.61 7761 5604 0 43733 556916 455061 32% 12 34962560 12400736 79%
c i 1590.61 7761 5604 0 43733 556917 455061 32% 12 34962560 12400730 79%
c 
c   seconds       reductions       redundant     irredundant
c            MB        restarts            trail           variables
c               level       conflicts          glue               remaining
c 
c i 1590.61 7761 5602 0 43733 556941 455081 32% 12 34962560 12400712 79%
c i 1590.84 7761 5592 0 43734 557238 455347 32% 12 34962560 12400709 79%
c i 1590.86 7761 5591 0 43734 557259 455365 32% 12 34962560 12400706 79%
c i 1590.95 7761 5583 0 43734 557544 455620 32% 12 34962560 12400701 79%
c i 1590.95 7761 5582 0 43734 557551 455623 32% 12 34962560 12400697 79%
c i 1590.95 7761 5581 0 43734 557606 455650 32% 12 34962560 12400686 79%
c i 1590.95 7761 5580 0 43734 557613 455654 32% 12 34962560 12400680 79%
c i 1590.95 7761 5580 0 43734 557617 455656 32% 12 34962560 12400679 79%
c i 1590.96 7761 5579 0 43734 557645 455673 32% 12 34962560 12400673 79%
c i 1590.96 7761 5579 0 43734 557665 455684 32% 12 34962560 12400649 79%
c i 1590.96 7761 5578 0 43734 557672 455686 32% 12 34962560 12400636 79%
c i 1590.96 7761 5578 0 43734 557677 455689 32% 12 34962560 12400631 79%
c i 1590.96 7761 5578 0 43734 557678 455689 32% 12 34962560 12400628 79%
c i 1590.96 7761 5578 0 43734 557679 455689 32% 12 34962560 12400626 79%
c i 1590.96 7761 5578 0 43734 557691 455698 32% 12 34962560 12400624 79%
c i 1590.96 7761 5577 0 43734 557707 455706 32% 12 34962560 12400620 79%
c i 1590.96 7761 5577 0 43734 557717 455712 32% 12 34962560 12400615 79%
c i 1590.96 7761 5576 0 43734 557729 455721 32% 12 34962560 12400612 79%
c i 1590.96 7761 5576 0 43734 557731 455721 32% 12 34962560 12400602 79%
c i 1590.96 7761 5576 0 43734 557753 455721 32% 12 34962560 12400580 79%
c 
c   seconds       reductions       redundant     irredundant
c            MB        restarts            trail           variables
c               level       conflicts          glue               remaining
c 
c i 1590.96 7761 5576 0 43734 557760 455726 32% 12 34962560 12400578 79%
c i 1590.96 7761 5576 0 43734 557763 455728 32% 12 34962560 12400576 79%
c i 1590.96 7761 5575 0 43734 557783 455742 32% 12 34962560 12400574 79%
c i 1590.96 7761 5575 0 43734 557789 455747 32% 12 34962560 12400560 79%
c i 1590.96 7761 5575 0 43734 557798 455750 32% 12 34962560 12400558 79%
c i 1590.98 7761 5574 0 43734 557830 455777 32% 12 34962560 12400549 79%
c ] 1591.17 7761 5574 0 43734 557930 455863 32% 12 34962560 12400549 79%
c ? 1591.17 7761 5574 0 43734 557930 455863 32% 12 34962560 12400549 79%
c 
c --- [ result ] -------------------------------------------------------------
c 
c UNKNOWN
c 
c --- [ run-time profiling ] -------------------------------------------------
c 
c process time taken by individual solving procedures
c (percentage relative to process time for solving)
c 
c      1582.94  100.00% search
c      1256.43   79.37% unstable
c       248.36   15.69% stable
c        75.46    4.77% walk
c         8.24    0.52% parse
c         2.69    0.17% lucky
c         0.00    0.00% simplify
c   =================================
c      1582.94   99.48% solve
c 
c last line shows process time for solving
c (percentage relative to total process time)
c 
c --- [ statistics ] ---------------------------------------------------------
c 
c chronological:            351179        62.94 %  of conflicts
c conflicts:                557930       352.46    per second
c decisions:              23804783     15038.36    per second
c fixed:                   3382077        21.43 %  of all variables
c learned:                  520085        93.22 %  per conflict
c learned_lits:           13179478       100.00 %  learned literals
c minimized:                     0         0.00 %  learned literals
c shrunken:                1449374        11.00 %  learned literals
c minishrunken:            1017017         7.72 %  learned literals
c otfs:                       7085         1.27 %  of conflict
c propagations:        13897956944         8.78 M  per second
c rephased:                     32     17435.31    interval
c restarts:                  43734        12.76    interval
c stabilizing:                   5        38.87 %  of conflicts
c subsumed:                  22639         0.05 %  of all clauses
c strengthened:               6983         0.02 %  of all clauses
c walked:                       10     55793.00    interval
c 
c seconds are measured in process time for solving
c 
c --- [ resources ] ----------------------------------------------------------
c 
c total process time since initialization:      1591.17    seconds
c total real time since initialization:         1600.00    seconds
c maximum resident set size of process:         9198.09    MB
c 
c --- [ shutting down ] ------------------------------------------------------
c 
c exit 0
